SCEL5_1_1_5_0_0_0                       
   1.00000000000000     
     0.0000000000000000    2.0077454353509268    2.0077454353509268
     2.0077454353509268    0.0000000000000000    2.0077454353509268
     7.5296209381543227    5.5218755028033968   -5.5218755028033959
   Al   Ni
     4     1
Direct
  0.3912854365469661  0.2174291269060607  0.1738563096409126
  0.7974199665505235  0.4051600668989458  0.3922598996515707
  0.2025800334494764  0.5948399331010543  0.6077401003484294
  0.6087145634530339  0.7825708730939394  0.8261436903590874
  0.0000000000000000  0.0000000000000000  0.0000000000000000
 
  0.00000000E+00  0.00000000E+00  0.00000000E+00
  0.00000000E+00  0.00000000E+00  0.00000000E+00
  0.00000000E+00  0.00000000E+00  0.00000000E+00
  0.00000000E+00  0.00000000E+00  0.00000000E+00
  0.00000000E+00  0.00000000E+00  0.00000000E+00
