SCEL5_1_1_5_0_0_0                       
   1.00000000000000     
     0.0000000000000000    2.0082289846732206    2.0082289846732206
     2.0082289846732206    0.0000000000000000    2.0082289846732206
     7.5309610004001195    5.5227320157269002   -5.5227320157268993
   Al   Ni
     4     1
Direct
  0.3912760914744700  0.2174478170510458  0.1738282744234312
  0.7974206053882028  0.4051587892235728  0.3922618161646230
  0.2025793946117971  0.5948412107764272  0.6077381838353770
  0.6087239085255300  0.7825521829489542  0.8261717255765687
  0.0000000000000000  0.0000000000000000  0.0000000000000000
 
  0.00000000E+00  0.00000000E+00  0.00000000E+00
  0.00000000E+00  0.00000000E+00  0.00000000E+00
  0.00000000E+00  0.00000000E+00  0.00000000E+00
  0.00000000E+00  0.00000000E+00  0.00000000E+00
  0.00000000E+00  0.00000000E+00  0.00000000E+00
