SCEL5_1_1_5_0_0_0                       
   1.00000000000000     
     0.0000000000000000    2.0090292831319139    2.0090292831319139
     2.0090292831319139    0.0000000000000000    2.0090292831319139
     7.5330038967715192    5.5239746136396075   -5.5239746136396066
   Al   Ni
     4     1
Direct
  0.3912582483299971  0.2174835033399987  0.1737747449900056
  0.7974214893174718  0.4051570213650493  0.3922644679524083
  0.2025785106825282  0.5948429786349507  0.6077355320475917
  0.6087417516700029  0.7825164966600013  0.8262252550099944
  0.0000000000000000  0.0000000000000000  0.0000000000000000
 
  0.00000000E+00  0.00000000E+00  0.00000000E+00
  0.00000000E+00  0.00000000E+00  0.00000000E+00
  0.00000000E+00  0.00000000E+00  0.00000000E+00
  0.00000000E+00  0.00000000E+00  0.00000000E+00
  0.00000000E+00  0.00000000E+00  0.00000000E+00
