SCEL5_1_1_5_0_0_0                       
   1.00000000000000     
     0.0000000000000000    2.0090292831319139    2.0090292831319139
     2.0090292831319139    0.0000000000000000    2.0090292831319139
     7.5330038967715192    5.5239746136396075   -5.5239746136396066
   Al   Ni
     4     1
Direct
  0.3912582483299950  0.2174835033399957  0.1737747449900065
  0.7974214893174693  0.4051570213650473  0.3922644679524077
  0.2025785106825307  0.5948429786349526  0.6077355320475923
  0.6087417516700050  0.7825164966600042  0.8262252550099934
  0.0000000000000000  0.0000000000000000  0.0000000000000000
 
  0.00000000E+00  0.00000000E+00  0.00000000E+00
  0.00000000E+00  0.00000000E+00  0.00000000E+00
  0.00000000E+00  0.00000000E+00  0.00000000E+00
  0.00000000E+00  0.00000000E+00  0.00000000E+00
  0.00000000E+00  0.00000000E+00  0.00000000E+00
