SCEL5_1_1_5_0_0_0                       
   1.00000000000000     
     0.0000000000000000    1.8934014887266790    1.8934014887266790
     1.8934014887266790    0.0000000000000000    1.8934014887266790
     6.9027183220510988    5.0093168333244202   -5.0093168333244211
   Al   Ni
     2     3
Direct
  0.7999514712855882  0.4000970574288165  0.3998544138567717
  0.6000485287144104  0.7999029425711791  0.8001455861432242
 -0.0006727704083325  0.0013455408166649 -0.0020183112249974
  0.4006727704083310  0.1986544591833379  0.2020183112250002
  0.2000000000000028  0.6000000000000014  0.6000000000000014
 
  0.00000000E+00  0.00000000E+00  0.00000000E+00
  0.00000000E+00  0.00000000E+00  0.00000000E+00
  0.00000000E+00  0.00000000E+00  0.00000000E+00
  0.00000000E+00  0.00000000E+00  0.00000000E+00
  0.00000000E+00  0.00000000E+00  0.00000000E+00
