SCEL5_1_1_5_0_0_0                       
   1.00000000000000     
     0.0000000000000000    1.9693616498989617    1.9693616498989612
     1.9693616498989617    0.0000000000000000    1.9693616498989612
     7.1159765457077011    5.1466148958087423   -5.1466148958087423
   Al   Ni
     3     2
Direct
  0.3999999999999986  0.2000000000000028  0.2000000000000028
  0.1938324171778504  0.6123351656443207  0.5814972515335296
  0.6061675828221611  0.7876648343556779  0.8185027484664619
  0.0024484645378437  0.9951030709243196  0.0073453936135170
  0.7975515354621534  0.4048969290756790  0.3926546063864816
 
  0.00000000E+00  0.00000000E+00  0.00000000E+00
  0.00000000E+00  0.00000000E+00  0.00000000E+00
  0.00000000E+00  0.00000000E+00  0.00000000E+00
  0.00000000E+00  0.00000000E+00  0.00000000E+00
  0.00000000E+00  0.00000000E+00  0.00000000E+00
