SCEL5_1_1_5_0_0_0                       
   1.00000000000000     
     0.0000000000000000    1.9690442027758033    1.9690442027758028
     1.9690442027758033    0.0000000000000000    1.9690442027758028
     7.1145287612510728    5.1454845584752720   -5.1454845584752720
   Al   Ni
     3     2
Direct
  0.3999999999999986  0.2000000000000028  0.2000000000000028
  0.1938332640001133  0.6123334719997947  0.5814997920003185
  0.6061667359998981  0.7876665280002039  0.8185002079996729
  0.0024484802993714  0.9951030394012643  0.0073454408981000
  0.7975515197006258  0.4048969605987343  0.3926545591018986
 
  0.00000000E+00  0.00000000E+00  0.00000000E+00
  0.00000000E+00  0.00000000E+00  0.00000000E+00
  0.00000000E+00  0.00000000E+00  0.00000000E+00
  0.00000000E+00  0.00000000E+00  0.00000000E+00
  0.00000000E+00  0.00000000E+00  0.00000000E+00
