SCEL5_1_1_5_0_0_0                       
   1.00000000000000     
     0.0000000000000000    2.0079152034237966    2.0079152034237966
     2.0079152034237966    0.0000000000000000    2.0079152034237966
     7.5301035255475837    5.5221883221237889   -5.5221883221237880
   Al   Ni
     4     1
Direct
  0.3912823325992887  0.2174353348014153  0.1738469977978805
  0.7974202009747875  0.4051595980504107  0.3922606029243697
  0.2025797990252125  0.5948404019495892  0.6077393970756304
  0.6087176674007112  0.7825646651985846  0.8261530022021195
  0.0000000000000000  0.0000000000000000  0.0000000000000000
 
  0.00000000E+00  0.00000000E+00  0.00000000E+00
  0.00000000E+00  0.00000000E+00  0.00000000E+00
  0.00000000E+00  0.00000000E+00  0.00000000E+00
  0.00000000E+00  0.00000000E+00  0.00000000E+00
  0.00000000E+00  0.00000000E+00  0.00000000E+00
