SCEL1_1_1_1_0_0_0
1.0
2.87893900 0.00000000 0.00000000
0.00000000 2.87893900 0.00000000
0.00000000 0.00000000 2.87893900
   Al   Ni
   1   1
Direct
0.00000000    0.00000000    0.00000000    Al
0.50000000    0.50000000    0.50000000    Ni
