SCEL5_1_1_5_0_0_0                       
   1.00000000000000     
     0.0000000000000000    2.0071406555045082    2.0071406555045082
     2.0071406555045082    0.0000000000000000    2.0071406555045082
     7.5278107852164995    5.5206701297119922   -5.5206701297119913
   Al   Ni
     4     1
Direct
  0.3912951579714153  0.2174096840571694  0.1738854739142530
  0.7974190686988372  0.4051618626023187  0.3922572060965184
  0.2025809313011629  0.5948381373976813  0.6077427939034814
  0.6087048420285851  0.7825903159428307  0.8261145260857470
  0.0000000000000000  0.0000000000000000  0.0000000000000000
 
  0.00000000E+00  0.00000000E+00  0.00000000E+00
  0.00000000E+00  0.00000000E+00  0.00000000E+00
  0.00000000E+00  0.00000000E+00  0.00000000E+00
  0.00000000E+00  0.00000000E+00  0.00000000E+00
  0.00000000E+00  0.00000000E+00  0.00000000E+00
