SCEL5_1_1_5_0_0_0                       
   1.00000000000000     
     0.0000000000000000    1.8947770049557353    1.8947770049557353
     1.8947770049557353    0.0000000000000000    1.8947770049557353
     6.9091967013049054    5.0144196963491696   -5.0144196963491705
   Al   Ni
     2     3
Direct
  0.7999520542493670  0.4000958915012518  0.3998561627481152
  0.6000479457506316  0.7999041084987439  0.8001438372518805
  0.9993194701781860  0.0013610596436209  0.9979584105345722
  0.4006805298218055  0.1986389403563820  0.2020415894654306
  0.2000000000000028  0.6000000000000014  0.6000000000000014
 
  0.00000000E+00  0.00000000E+00  0.00000000E+00
  0.00000000E+00  0.00000000E+00  0.00000000E+00
  0.00000000E+00  0.00000000E+00  0.00000000E+00
  0.00000000E+00  0.00000000E+00  0.00000000E+00
  0.00000000E+00  0.00000000E+00  0.00000000E+00
