SCEL5_1_1_5_0_0_0                       
   1.00000000000000     
     0.0000000000000000    1.8947770049557353    1.8947770049557353
     1.8947770049557353    0.0000000000000000    1.8947770049557353
     6.9091967013049054    5.0144196963491696   -5.0144196963491705
   Al   Ni
     2     3
Direct
  0.7999520542493689  0.4000958915012552  0.3998561627481136
  0.6000479457506297  0.7999041084987406  0.8001438372518822
  0.9993194701781855  0.0013610596436219  0.9979584105345708
  0.4006805298218060  0.1986389403563810  0.2020415894654321
  0.2000000000000028  0.6000000000000014  0.6000000000000014
 
  0.00000000E+00  0.00000000E+00  0.00000000E+00
  0.00000000E+00  0.00000000E+00  0.00000000E+00
  0.00000000E+00  0.00000000E+00  0.00000000E+00
  0.00000000E+00  0.00000000E+00  0.00000000E+00
  0.00000000E+00  0.00000000E+00  0.00000000E+00
