SCEL5_1_1_5_0_0_0                       
   1.00000000000000     
     0.0000000000000000    1.9615605167151771    1.9615605167151771
     1.9615605167151771    0.0000000000000000    1.9615605167151771
     7.2641857412527360    5.3026252245375600   -5.3026252245375600
   Al   Ni
     3     2
Direct
  0.7914130434453668  0.4171739131092664  0.3742391303360932
  0.2000000000000028  0.6000000000000014  0.6000000000000014
  0.6085869565546318  0.7828260868907293  0.8257608696639025
  0.0014545634182070  0.9970908731635859  0.0043636902546211
  0.3985454365817915  0.2029091268364169  0.1956363097453817
 
  0.00000000E+00  0.00000000E+00  0.00000000E+00
  0.00000000E+00  0.00000000E+00  0.00000000E+00
  0.00000000E+00  0.00000000E+00  0.00000000E+00
  0.00000000E+00  0.00000000E+00  0.00000000E+00
  0.00000000E+00  0.00000000E+00  0.00000000E+00
