SCEL5_1_1_5_0_0_0                       
   1.00000000000000     
     0.0000000000000000    1.9615605167151771    1.9615605167151771
     1.9615605167151771    0.0000000000000000    1.9615605167151771
     7.2641857412527360    5.3026252245375600   -5.3026252245375600
   Al   Ni
     3     2
Direct
  0.7914130434453654  0.4171739131092692  0.3742391303360962
  0.2000000000000028  0.6000000000000014  0.6000000000000014
  0.6085869565546331  0.7828260868907265  0.8257608696638995
  0.0014545634182066  0.9970908731635867  0.0043636902546199
  0.3985454365817919  0.2029091268364161  0.1956363097453829
 
  0.00000000E+00  0.00000000E+00  0.00000000E+00
  0.00000000E+00  0.00000000E+00  0.00000000E+00
  0.00000000E+00  0.00000000E+00  0.00000000E+00
  0.00000000E+00  0.00000000E+00  0.00000000E+00
  0.00000000E+00  0.00000000E+00  0.00000000E+00
