SCEL5_1_1_5_0_0_0                       
   1.00000000000000     
     0.0000000000000000    1.9681063609208604    1.9681063609208600
     1.9681063609208604    0.0000000000000000    1.9681063609208600
     7.1101774449034787    5.1420710839826205   -5.1420710839826205
   Al   Ni
     3     2
Direct
  0.3999999999999986  0.2000000000000028  0.2000000000000028
  0.1938345995144355  0.6123308009711431  0.5815037985432853
  0.6061654004855759  0.7876691990288555  0.8184962014567062
  0.0024485135931169  0.9951029728137734  0.0073455407793364
  0.7975514864068803  0.4048970271862252  0.3926544592206622
 
  0.00000000E+00  0.00000000E+00  0.00000000E+00
  0.00000000E+00  0.00000000E+00  0.00000000E+00
  0.00000000E+00  0.00000000E+00  0.00000000E+00
  0.00000000E+00  0.00000000E+00  0.00000000E+00
  0.00000000E+00  0.00000000E+00  0.00000000E+00
