SCEL5_1_1_5_0_0_0                       
   1.00000000000000     
     0.0000000000000000    1.9673610381604312    1.9673610381604307
     1.9673610381604312    0.0000000000000000    1.9673610381604307
     7.1066513324658525    5.1392902943054226   -5.1392902943054226
   Al   Ni
     3     2
Direct
  0.3999999999999986  0.2000000000000028  0.2000000000000028
  0.1938346253408644  0.6123307493182926  0.5815038760225648
  0.6061653746591470  0.7876692506817060  0.8184961239774267
  0.0024484923928773  0.9951030152142454  0.0073454771786248
  0.7975515076071199  0.4048969847857532  0.3926545228213738
 
  0.00000000E+00  0.00000000E+00  0.00000000E+00
  0.00000000E+00  0.00000000E+00  0.00000000E+00
  0.00000000E+00  0.00000000E+00  0.00000000E+00
  0.00000000E+00  0.00000000E+00  0.00000000E+00
  0.00000000E+00  0.00000000E+00  0.00000000E+00
