SCEL5_1_1_5_0_0_0                       
   1.00000000000000     
     0.0000000000000000    2.0075657782660694    2.0075657782660694
     2.0075657782660694    0.0000000000000000    2.0075657782660694
     7.5290979130216567    5.5215321347555877   -5.5215321347555868
   Al   Ni
     4     1
Direct
  0.3912885405425193  0.2174229189149542  0.1738656216275722
  0.7974197078878621  0.4051605842242685  0.3922591236635865
  0.2025802921121378  0.5948394157757315  0.6077408763364135
  0.6087114594574806  0.7825770810850458  0.8261343783724278
  0.0000000000000000  0.0000000000000000  0.0000000000000000
 
  0.00000000E+00  0.00000000E+00  0.00000000E+00
  0.00000000E+00  0.00000000E+00  0.00000000E+00
  0.00000000E+00  0.00000000E+00  0.00000000E+00
  0.00000000E+00  0.00000000E+00  0.00000000E+00
  0.00000000E+00  0.00000000E+00  0.00000000E+00
