SCEL5_1_1_5_0_0_0                       
   1.00000000000000     
     0.0000000000000000    2.0073743841923344    2.0073743841923344
     2.0073743841923344    0.0000000000000000    2.0073743841923344
     7.5285267137872358    5.5211523295949014   -5.5211523295949005
   Al   Ni
     4     1
Direct
  0.3912916440837929  0.2174167118324071  0.1738749322513929
  0.7974194243469894  0.4051611513060140  0.3922582730409755
  0.2025805756530105  0.5948388486939861  0.6077417269590245
  0.6087083559162071  0.7825832881675929  0.8261250677486069
  0.0000000000000000  0.0000000000000000  0.0000000000000000
 
  0.00000000E+00  0.00000000E+00  0.00000000E+00
  0.00000000E+00  0.00000000E+00  0.00000000E+00
  0.00000000E+00  0.00000000E+00  0.00000000E+00
  0.00000000E+00  0.00000000E+00  0.00000000E+00
  0.00000000E+00  0.00000000E+00  0.00000000E+00
