SCEL5_1_1_5_0_0_0                       
   1.00000000000000     
     0.0000000000000000    1.8246196849716532    1.8246196849716532
     1.8246196849716532    0.0000000000000000    1.8246196849716532
     6.9467978292518504    5.1221781442801957   -5.1221781442801957
   Al   Ni
     1     4
Direct
  0.6000000000000014  0.7999999999999972  0.7999999999999972
  0.9991531694972835  0.0016936610054401  0.9974595084918505
  0.4002666925223579  0.1994666149552771  0.2008000775670880
  0.7997333074776378  0.4005333850447244  0.3991999224329135
  0.2008468305027193  0.5983063389945613  0.6025404915081509
 
  0.00000000E+00  0.00000000E+00  0.00000000E+00
  0.00000000E+00  0.00000000E+00  0.00000000E+00
  0.00000000E+00  0.00000000E+00  0.00000000E+00
  0.00000000E+00  0.00000000E+00  0.00000000E+00
  0.00000000E+00  0.00000000E+00  0.00000000E+00
