SCEL2_1_2_1_0_0_1                       
   1.00000000000000     
     0.0000000000000000    2.0361330904731045    2.0361330904731045
     2.9281700607551779    0.0000000000000000    0.0000000000000000
     0.0000000000000000    2.0361330904731045   -2.0361330904731045
   Al   Ni
     1     1
Direct
  0.5000000000000000  0.5000000000000000  0.5000000000000000
  0.0000000000000000  0.0000000000000000  0.0000000000000000
 
  0.00000000E+00  0.00000000E+00  0.00000000E+00
  0.00000000E+00  0.00000000E+00  0.00000000E+00
