SCEL2_1_2_1_0_0_1                       
   1.00000000000000     
     0.0000000000000000    2.0324736148817575    2.0324736148817575
     2.9314195123972278    0.0000000000000000    0.0000000000000000
     0.0000000000000000    2.0324736148817575   -2.0324736148817575
   Al   Ni
     1     1
Direct
  0.5000000000000000  0.5000000000000000  0.5000000000000000
  0.0000000000000000  0.0000000000000000  0.0000000000000000
 
  0.00000000E+00  0.00000000E+00  0.00000000E+00
  0.00000000E+00  0.00000000E+00  0.00000000E+00
