SCEL2_1_2_1_0_0_1
1.0
0.00000000 1.75475022 1.75475022
3.50950045 0.00000000 0.00000000
0.00000000 1.75475022 -1.75475022
   Al   Ni
   1   1
Direct
0.50000000    0.50000000    0.50000000    Al
0.00000000    0.00000000    0.00000000    Ni
