SCEL5_1_1_5_0_0_0                       
   1.00000000000000     
     0.0000000000000000    1.9703925284641095    1.9703925284641091
     1.9703925284641095    0.0000000000000000    1.9703925284641091
     7.1206372736448111    5.1502447451807054   -5.1502447451807054
   Al   Ni
     3     2
Direct
  0.3999999999999986  0.2000000000000028  0.2000000000000028
  0.1938291541751198  0.6123416916497817  0.5814874625253310
  0.6061708458248916  0.7876583083502169  0.8185125374746605
  0.0024484157407798  0.9951031685184404  0.0073452472223394
  0.7975515842592173  0.4048968314815582  0.3926547527776592
 
  0.00000000E+00  0.00000000E+00  0.00000000E+00
  0.00000000E+00  0.00000000E+00  0.00000000E+00
  0.00000000E+00  0.00000000E+00  0.00000000E+00
  0.00000000E+00  0.00000000E+00  0.00000000E+00
  0.00000000E+00  0.00000000E+00  0.00000000E+00
