SCEL5_1_1_5_0_0_0                       
   1.00000000000000     
     0.0000000000000000    1.9703925284641095    1.9703925284641091
     1.9703925284641095    0.0000000000000000    1.9703925284641091
     7.1206372736448111    5.1502447451807054   -5.1502447451807054
   Al   Ni
     3     2
Direct
  0.3999999999999986  0.2000000000000028  0.2000000000000028
  0.1938291541751208  0.6123416916497797  0.5814874625253340
  0.6061708458248906  0.7876583083502189  0.8185125374746575
  0.0024484157407819  0.9951031685184434  0.0073452472223385
  0.7975515842592152  0.4048968314815552  0.3926547527776600
 
  0.00000000E+00  0.00000000E+00  0.00000000E+00
  0.00000000E+00  0.00000000E+00  0.00000000E+00
  0.00000000E+00  0.00000000E+00  0.00000000E+00
  0.00000000E+00  0.00000000E+00  0.00000000E+00
  0.00000000E+00  0.00000000E+00  0.00000000E+00
