SCEL5_1_1_5_0_0_0                       
   1.00000000000000     
     0.0000000000000000    1.9686422126151542    1.9686422126151537
     1.9686422126151542    0.0000000000000000    1.9686422126151537
     7.1126766299581963    5.1440344173430441   -5.1440344173430441
   Al   Ni
     3     2
Direct
  0.3999999999999986  0.2000000000000028  0.2000000000000028
  0.1938340358890200  0.6123319282219813  0.5815021076670315
  0.6061659641109914  0.7876680717780172  0.8184978923329600
  0.0024484998333268  0.9951030003333535  0.0073454994999661
  0.7975515001666704  0.4048969996666450  0.3926545005000325
 
  0.00000000E+00  0.00000000E+00  0.00000000E+00
  0.00000000E+00  0.00000000E+00  0.00000000E+00
  0.00000000E+00  0.00000000E+00  0.00000000E+00
  0.00000000E+00  0.00000000E+00  0.00000000E+00
  0.00000000E+00  0.00000000E+00  0.00000000E+00
