SCEL5_1_1_5_0_0_0                       
   1.00000000000000     
     0.0000000000000000    1.8903685689593090    1.8903685689593090
     1.8903685689593090    0.0000000000000000    1.8903685689593090
     7.0829000298364084    5.1925314608770989   -5.1925314608770989
   Al   Ni
     2     3
Direct
  0.1944677918131958  0.6110644163736083  0.5834033754395875
  0.6055322081868084  0.7889355836263903  0.8165966245604110
  0.0013516052919016  0.9972967894161897  0.0040548158757119
  0.3999999999999986  0.2000000000000028  0.2000000000000028
  0.7986483947080956  0.4027032105838089  0.3959451841242867
 
  0.00000000E+00  0.00000000E+00  0.00000000E+00
  0.00000000E+00  0.00000000E+00  0.00000000E+00
  0.00000000E+00  0.00000000E+00  0.00000000E+00
  0.00000000E+00  0.00000000E+00  0.00000000E+00
  0.00000000E+00  0.00000000E+00  0.00000000E+00
