SCEL5_1_1_5_0_0_0
1.0
0.00000000 1.75475022 1.75475022
1.75475022 0.00000000 1.75475022
7.01900089 5.26425067 -5.26425067
   Al   Ni
   2   3
Direct
0.20000000    0.60000000    0.60000000    Al
0.60000000    0.80000000    0.80000000    Al
0.00000000    0.00000000    0.00000000    Ni
0.40000000    0.20000000    0.20000000    Ni
0.80000000    0.40000000    0.40000000    Ni
