SCEL1_1_1_1_0_0_0                       
   1.00000000000000     
     2.7956232650554518    0.0000000000000000    0.0000000000000000
     0.0000000000000000    2.7956232650554518    0.0000000000000000
     0.0000000000000000    0.0000000000000000    2.7956232650554518
   Ni
     2
Direct
  0.5000000000000000  0.5000000000000000  0.5000000000000000
  0.0000000000000000  0.0000000000000000  0.0000000000000000
 
  0.00000000E+00  0.00000000E+00  0.00000000E+00
  0.00000000E+00  0.00000000E+00  0.00000000E+00
