SCEL5_1_1_5_0_0_0                       
   1.00000000000000     
     0.0000000000000000    1.8892975081003531    1.8892975081003531
     1.8892975081003531    0.0000000000000000    1.8892975081003531
     7.0809534593744967    5.1916559512741429   -5.1916559512741429
   Al   Ni
     2     3
Direct
  0.1944961860923026  0.6110076278154019  0.5834885582769009
  0.6055038139077015  0.7889923721845967  0.8165114417230976
  0.0013609540214667 -0.0027219080429333  0.0040828620644000
  0.3999999999999986  0.2000000000000028  0.2000000000000028
  0.7986390459785303  0.4027219080429320  0.3959171379355985
 
  0.00000000E+00  0.00000000E+00  0.00000000E+00
  0.00000000E+00  0.00000000E+00  0.00000000E+00
  0.00000000E+00  0.00000000E+00  0.00000000E+00
  0.00000000E+00  0.00000000E+00  0.00000000E+00
  0.00000000E+00  0.00000000E+00  0.00000000E+00
