SCEL1_1_1_1_0_0_0                       
   1.00000000000000     
     0.0000000000000000    1.7539445721107974    1.7539445721107974
     1.7539445721107974    0.0000000000000000    1.7539445721107974
     1.7539445721107974    1.7539445721107974    0.0000000000000000
   Ni
     1
Direct
  0.0000000000000000  0.0000000000000000  0.0000000000000000
 
  0.00000000E+00  0.00000000E+00  0.00000000E+00
