SCEL1_1_1_1_0_0_0
1.0
0.00000000 1.75475022 1.75475022
1.75475022 0.00000000 1.75475022
1.75475022 1.75475022 0.00000000
   Ni
   1
Direct
0.00000000    0.00000000    0.00000000    Ni
