SCEL5_1_1_5_0_0_0                       
   1.00000000000000     
     0.0000000000000000    1.8903685689593090    1.8903685689593090
     1.8903685689593090    0.0000000000000000    1.8903685689593090
     7.0829000298364084    5.1925314608770989   -5.1925314608770989
   Al   Ni
     2     3
Direct
  0.1944677918131981  0.6110644163736109  0.5834033754395873
  0.6055322081868061  0.7889355836263877  0.8165966245604113
  0.0013516052919017  0.9972967894161896  0.0040548158757121
  0.3999999999999986  0.2000000000000028  0.2000000000000028
  0.7986483947080956  0.4027032105838090  0.3959451841242865
 
  0.00000000E+00  0.00000000E+00  0.00000000E+00
  0.00000000E+00  0.00000000E+00  0.00000000E+00
  0.00000000E+00  0.00000000E+00  0.00000000E+00
  0.00000000E+00  0.00000000E+00  0.00000000E+00
  0.00000000E+00  0.00000000E+00  0.00000000E+00
