SCEL5_1_1_5_0_0_0                       
   1.00000000000000     
     0.0000000000000000    1.9615523931458638    1.9615523931458634
     1.9615523931458638    0.0000000000000000    1.9615523931458634
     7.0777610253745262    5.1162086322286626   -5.1162086322286626
   Al   Ni
     3     2
Direct
  0.3999999999999986  0.2000000000000028  0.2000000000000028
  0.1938151361033316  0.6123697277933436  0.5814454083099878
  0.6061848638966727  0.7876302722066549  0.8185545916900108
  0.0024462458252278 -0.0048924916504557  0.0073387374756835
  0.7975537541747693  0.4048924916504542  0.3926612625243151
 
  0.00000000E+00  0.00000000E+00  0.00000000E+00
  0.00000000E+00  0.00000000E+00  0.00000000E+00
  0.00000000E+00  0.00000000E+00  0.00000000E+00
  0.00000000E+00  0.00000000E+00  0.00000000E+00
  0.00000000E+00  0.00000000E+00  0.00000000E+00
