SCEL5_1_1_5_0_0_0                       
   1.00000000000000     
     0.0000000000000000    2.0083726112418496    2.0083726112418496
     2.0083726112418496    0.0000000000000000    2.0083726112418496
     7.5313363784298462    5.5229637671879983   -5.5229637671879974
   Al   Ni
     4     1
Direct
  0.3912729851571977  0.2174540296855833  0.1738189554716215
  0.7974207730751079  0.4051584538497628  0.3922623192253309
  0.2025792269248921  0.5948415461502372  0.6077376807746691
  0.6087270148428022  0.7825459703144166  0.8261810445283785
  0.0000000000000000  0.0000000000000000  0.0000000000000000
 
  0.00000000E+00  0.00000000E+00  0.00000000E+00
  0.00000000E+00  0.00000000E+00  0.00000000E+00
  0.00000000E+00  0.00000000E+00  0.00000000E+00
  0.00000000E+00  0.00000000E+00  0.00000000E+00
  0.00000000E+00  0.00000000E+00  0.00000000E+00
