MAGMOM = 3.1 3.1
LCHARG = .FALSE.
ISYM = 2
ENCUT = 560.0
ISIF = 3
ICHARG = 2
IBRION = 2
ALGO = FAST
ISPIN = 2
ISMEAR = 1
SIGMA = 0.2
NSW = 61
