SCEL5_1_1_5_0_0_0                       
   1.00000000000000     
     0.0000000000000000    2.0080752885275470    2.0080752885275470
     2.0080752885275470    0.0000000000000000    2.0080752885275470
     7.5305461941908840    5.5224709056633383   -5.5224709056633374
   Al   Ni
     4     1
Direct
  0.3912792249236521  0.2174415501526886  0.1738376747709706
  0.7974204138146208  0.4051591723707371  0.3922612414438766
  0.2025795861853792  0.5948408276292629  0.6077387585561234
  0.6087207750763479  0.7825584498473114  0.8261623252290293
  0.0000000000000000  0.0000000000000000  0.0000000000000000
 
  0.00000000E+00  0.00000000E+00  0.00000000E+00
  0.00000000E+00  0.00000000E+00  0.00000000E+00
  0.00000000E+00  0.00000000E+00  0.00000000E+00
  0.00000000E+00  0.00000000E+00  0.00000000E+00
  0.00000000E+00  0.00000000E+00  0.00000000E+00
