SCEL5_1_1_5_0_0_0                       
   1.00000000000000     
     0.0000000000000000    1.8205361147657944    1.8205361147657944
     1.8205361147657944    0.0000000000000000    1.8205361147657944
     6.9408743084310993    5.1203381936653036   -5.1203381936653036
   Al   Ni
     1     4
Direct
  0.6000000000000014  0.7999999999999972  0.7999999999999972
 -0.0007170254839353  0.0014340509678706 -0.0021510764518059
  0.4002342965594384  0.1995314068811232  0.2007028896783223
  0.7997657034405572  0.4004685931188782  0.3992971103216791
  0.2007170254839381  0.5985659490321308  0.6021510764518073
 
  0.00000000E+00  0.00000000E+00  0.00000000E+00
  0.00000000E+00  0.00000000E+00  0.00000000E+00
  0.00000000E+00  0.00000000E+00  0.00000000E+00
  0.00000000E+00  0.00000000E+00  0.00000000E+00
  0.00000000E+00  0.00000000E+00  0.00000000E+00
