SCEL1_1_1_1_0_0_0                       
   1.00000000000000     
     2.3232048381872237    0.0000000000000000    0.0000000000000000
     0.0000000000000000    2.3232048381872237    0.0000000000000000
     0.0000000000000000    0.0000000000000000    2.3232048381872237
   Ni
     1
Direct
  0.0000000000000000  0.0000000000000000  0.0000000000000000
 
  0.00000000E+00  0.00000000E+00  0.00000000E+00
