SCEL5_1_1_5_0_0_0                       
   1.00000000000000     
     0.0000000000000000    1.9662961413726578    1.9662961413726574
     1.9662961413726578    0.0000000000000000    1.9662961413726574
     7.1015248110001412    5.1352286696274847   -5.1352286696274847
   Al   Ni
     3     2
Direct
  0.3999999999999986  0.2000000000000028  0.2000000000000028
  0.1938334434302753  0.6123331131394636  0.5815003302908117
  0.6061665565697290  0.7876668868605350  0.8184996697091869
  0.0024483716366151  0.9951032567267627  0.0073451149098452
  0.7975516283633821  0.4048967432732358  0.3926548850901533
 
  0.00000000E+00  0.00000000E+00  0.00000000E+00
  0.00000000E+00  0.00000000E+00  0.00000000E+00
  0.00000000E+00  0.00000000E+00  0.00000000E+00
  0.00000000E+00  0.00000000E+00  0.00000000E+00
  0.00000000E+00  0.00000000E+00  0.00000000E+00
