SCEL5_1_1_5_0_0_0                       
   1.00000000000000     
     0.0000000000000000    1.9647336584134398    1.9647336584134394
     1.9647336584134398    0.0000000000000000    1.9647336584134394
     7.0938485033995642    5.1291148449861250   -5.1291148449861250
   Al   Ni
     3     2
Direct
  0.3999999999999986  0.2000000000000028  0.2000000000000028
  0.1938295445438282  0.6123409109123508  0.5814886336314775
  0.6061704554561760  0.7876590890876478  0.8185113663685211
  0.0024479821864657  0.9951040356270615  0.0073439465594041
  0.7975520178135315  0.4048959643729370  0.3926560534405945
 
  0.00000000E+00  0.00000000E+00  0.00000000E+00
  0.00000000E+00  0.00000000E+00  0.00000000E+00
  0.00000000E+00  0.00000000E+00  0.00000000E+00
  0.00000000E+00  0.00000000E+00  0.00000000E+00
  0.00000000E+00  0.00000000E+00  0.00000000E+00
