SCEL5_1_1_5_0_0_0                       
   1.00000000000000     
     0.0000000000000000    1.9608498321534706    1.9608498321534706
     1.9608498321534706    0.0000000000000000    1.9608498321534706
     7.2620049485016933    5.3011551163482231   -5.3011551163482231
   Al   Ni
     3     2
Direct
  0.7914393101244322  0.4171213797511354  0.3743179303732969
  0.2000000000000028  0.6000000000000014  0.6000000000000014
  0.6085606898755663  0.7828786202488603  0.8256820696266989
  0.0014723766458014  0.9970552467083972  0.0044171299374043
  0.3985276233541972  0.2029447532916057  0.1955828700625985
 
  0.00000000E+00  0.00000000E+00  0.00000000E+00
  0.00000000E+00  0.00000000E+00  0.00000000E+00
  0.00000000E+00  0.00000000E+00  0.00000000E+00
  0.00000000E+00  0.00000000E+00  0.00000000E+00
  0.00000000E+00  0.00000000E+00  0.00000000E+00
