SCEL5_1_1_5_0_0_0                       
   1.00000000000000     
     0.0000000000000000    1.9475476678305135    1.9475476678305135
     1.9475476678305135    0.0000000000000000    1.9475476678305135
     7.2065733802333307    5.2590257124028170   -5.2590257124028170
   Al   Ni
     3     2
Direct
  0.7914519823652501  0.4170960352694926  0.3743559470957574
  0.2000000000000028  0.6000000000000014  0.6000000000000014
  0.6085480176347485  0.7829039647305028  0.8256440529042383
  0.0015106544054440 -0.0030213088108880  0.0045319632163320
  0.3984893455945545  0.2030213088108909  0.1954680367836708
 
  0.00000000E+00  0.00000000E+00  0.00000000E+00
  0.00000000E+00  0.00000000E+00  0.00000000E+00
  0.00000000E+00  0.00000000E+00  0.00000000E+00
  0.00000000E+00  0.00000000E+00  0.00000000E+00
  0.00000000E+00  0.00000000E+00  0.00000000E+00
