SCEL1_1_1_1_0_0_0                       
   1.00000000000000     
     2.3309328476934312    0.0000000000000000    0.0000000000000000
     0.0000000000000000    2.3309328476934317    0.0000000000000000
     0.0000000000000000    0.0000000000000000    2.3309328476934317
   Ni
     1
Direct
  0.0000000000000000  0.0000000000000000  0.0000000000000000
 
  0.00000000E+00  0.00000000E+00  0.00000000E+00
